# vtk DataFile Version 1.0
2D Unstructured Grid of Linear Triangles
ASCII
 
DATASET UNSTRUCTURED_GRID
POINTS 25 float
0 0  0
1 0  0
2 0  0
3 0  0
4 0  0
0.501 1  0
1.5 1  0
2.5 1  0
3.5 1  0
4.501 1  0
1.002 2  0
2 2  0
3 2  0
4 2  0
5.002 2  0
1.503 3  0
2.5 3  0
3.5 3  0
4.5 3  0
5.503 3  0
2.004 4  0
3.004 4  0
4.004 4  0
5.004 4  0
6.004 4  0
CELLS 32 128
3 0 1 5
3 1 2 6
3 2 3 7
3 3 4 8
3 5 6 10
3 6 7 11
3 7 8 12
3 8 9 13
3 10 11 15
3 11 12 16
3 12 13 17
3 13 14 18
3 15 16 20
3 16 17 21
3 17 18 22
3 18 19 23
3 6 5 1
3 7 6 2
3 8 7 3
3 9 8 4
3 11 10 6
3 12 11 7
3 13 12 8
3 14 13 9
3 16 15 11
3 17 16 12
3 18 17 13
3 19 18 14
3 21 20 16
3 22 21 17
3 23 22 18
3 24 23 19
 
CELL_TYPES 32
5
5
5
5
5
5
5
5
5
5
5
5
5
5
5
5
5
5
5
5
5
5
5
5
5
5
5
5
5
5
5
5
 
POINT_DATA 25
SCALARS Energy float
LOOKUP_TABLE default 
0.0904204
0.0904208
0.0904208
0.0904208
0
0.0904746
0.0904208
0.0904208
0.0903828
0
0.0905453
0.0904208
0.0904208
0.0903614
0
0.0906326
0.0904146
0.0904146
0.0903549
0
0
0
0
0
0
 
CELL_DATA 32
TENSORS Stress float 
-0.0458656 -0.000771311 0
-0.000771311 0.0462521 0
0 0 0
 
-0.0462536 -7.5127e-10 0
-7.5127e-10 0.0462535 0
0 0 0
 
-0.0462536 -2.39829e-09 0
-2.39829e-09 0.0462535 0
0 0 0
 
-0.0462535 -1.79882e-09 0
-1.79882e-09 0.0462536 0
0 0 0
 
-0.0624176 -0.00116374 0
-0.00116374 0.0309543 0
0 0 0
 
-0.0462536 3.02609e-09 0
3.02609e-09 0.0462535 0
0 0 0
 
-0.0462536 -1.18734e-09 0
-1.18734e-09 0.0462535 0
0 0 0
 
-0.029717 0.000383401 0
0.000383401 0.061571 0
0 0 0
 
-0.0789896 -0.00156067 0
-0.00156067 0.0156776 0
0 0 0
 
-0.0462536 -1.52405e-09 0
-1.52405e-09 0.0462535 0
0 0 0
 
-0.0462535 -3.1342e-10 0
-3.1342e-10 0.0462536 0
0 0 0
 
-0.0132002 0.00076229 0
0.00076229 0.0769094 0
0 0 0
 
-0.0955818 -0.00196212 0
-0.00196212 0.000422032 0
0 0 0
 
-0.0446747 -0.00308549 0
-0.00308549 0.0462298 0
0 0 0
 
-0.0446747 -0.00308549 0
-0.00308549 0.0462298 0
0 0 0
 
0.0048215 -0.00189448 0
-0.00189448 0.0922629 0
0 0 0
 
-0.0628101 -0.000387908 0
-0.000387908 0.0309572 0
0 0 0
 
-0.0462535 -8.76108e-11 0
-8.76108e-11 0.0462536 0
0 0 0
 
-0.0462536 -5.66326e-09 0
-5.66326e-09 0.0462535 0
0 0 0
 
-0.0293336 -0.000383398 0
-0.000383398 0.0615709 0
0 0 0
 
-0.0793866 -0.000780321 0
-0.000780321 0.015682 0
0 0 0
 
-0.0462535 -8.43873e-10 0
-8.43873e-10 0.0462536 0
0 0 0
 
-0.0462536 -1.67326e-10 0
-1.67326e-10 0.0462535 0
0 0 0
 
-0.0128212 2.89498e-09 0
2.89498e-09 0.076911 0
0 0 0
 
-0.0959832 -0.00117725 0
-0.00117725 0.000427903 0
0 0 0
 
-0.0462536 -1.25108e-09 0
-1.25108e-09 0.0462535 0
0 0 0
 
-0.0462536 2.92004e-09 0
2.92004e-09 0.0462535 0
0 0 0
 
0.00367127 0.000378884 0
0.000378884 0.0922719 0
0 0 0
 
-0.0446747 -0.00308549 0
-0.00308549 0.0462298 0
0 0 0
 
-0.0446748 -0.00308549 0
-0.00308549 0.0462298 0
0 0 0
 
-0.0446747 -0.00308549 0
-0.00308549 0.0462298 0
0 0 0
 
-0.0458656 -0.000771311 0
-0.000771311 0.0462521 0
0 0 0
 
