# vtk DataFile Version 1.0
2D Unstructured Grid of Linear Triangles
ASCII
 
DATASET UNSTRUCTURED_GRID
POINTS 25 float
0 0  0
1 0  0
2 0  0
3 0  0
4 0  0
0.5 1  0
1.5 1  0
2.5 1  0
3.5 1  0
4.5 1  0
1 2  0
2 2  0
3 2  0
4 2  0
5 2  0
1.5 3  0
2.5 3  0
3.5 3  0
4.5 3  0
5.5 3  0
2 4  0
3 4  0
4 4  0
5 4  0
6 4  0
CELLS 32 128
3 0 1 5
3 1 2 6
3 2 3 7
3 3 4 8
3 5 6 10
3 6 7 11
3 7 8 12
3 8 9 13
3 10 11 15
3 11 12 16
3 12 13 17
3 13 14 18
3 15 16 20
3 16 17 21
3 17 18 22
3 18 19 23
3 6 5 1
3 7 6 2
3 8 7 3
3 9 8 4
3 11 10 6
3 12 11 7
3 13 12 8
3 14 13 9
3 16 15 11
3 17 16 12
3 18 17 13
3 19 18 14
3 21 20 16
3 22 21 17
3 23 22 18
3 24 23 19
 
CELL_TYPES 32
5
5
5
5
5
5
5
5
5
5
5
5
5
5
5
5
5
5
5
5
5
5
5
5
5
5
5
5
5
5
5
5
 
POINT_DATA 25
SCALARS Energy float
LOOKUP_TABLE default 
0.0904208
0.0904208
0.0904208
0.0904208
0
0.0904208
0.0904208
0.0904208
0.0904208
0
0.0904208
0.0904208
0.0904208
0.0904208
0
0.0904208
0.0904208
0.0904208
0.0904208
0
0
0
0
0
0
 
CELL_DATA 32
TENSORS Stress float 
-0.0462536 -2.48272e-16 0
-2.48272e-16 0.0462536 0
0 0 0
 
-0.0462536 -7.5127e-10 0
-7.5127e-10 0.0462535 0
0 0 0
 
-0.0462536 -2.39829e-09 0
-2.39829e-09 0.0462535 0
0 0 0
 
-0.0462535 -1.79882e-09 0
-1.79882e-09 0.0462536 0
0 0 0
 
-0.0462535 6.40797e-10 0
6.40797e-10 0.0462536 0
0 0 0
 
-0.0462536 3.02609e-09 0
3.02609e-09 0.0462535 0
0 0 0
 
-0.0462536 -1.18734e-09 0
-1.18734e-09 0.0462535 0
0 0 0
 
-0.0462536 2.91115e-09 0
2.91115e-09 0.0462536 0
0 0 0
 
-0.0462535 2.85698e-09 0
2.85698e-09 0.0462536 0
0 0 0
 
-0.0462536 -1.52405e-09 0
-1.52405e-09 0.0462535 0
0 0 0
 
-0.0462535 -3.1342e-10 0
-3.1342e-10 0.0462536 0
0 0 0
 
-0.0462536 3.23823e-09 0
3.23823e-09 0.0462535 0
0 0 0
 
-0.0462536 1.7997e-10 0
1.7997e-10 0.0462535 0
0 0 0
 
-0.0462536 -5.06424e-09 0
-5.06424e-09 0.0462535 0
0 0 0
 
-0.0462535 3.80411e-10 0
3.80411e-10 0.0462536 0
0 0 0
 
-0.0462535 -1.96198e-10 0
-1.96198e-10 0.0462536 0
0 0 0
 
-0.0462535 -1.10473e-10 0
-1.10473e-10 0.0462536 0
0 0 0
 
-0.0462535 -8.76108e-11 0
-8.76108e-11 0.0462536 0
0 0 0
 
-0.0462536 -5.66326e-09 0
-5.66326e-09 0.0462535 0
0 0 0
 
-0.0462536 9.12956e-10 0
9.12956e-10 0.0462535 0
0 0 0
 
-0.0462536 3.57239e-09 0
3.57239e-09 0.0462535 0
0 0 0
 
-0.0462535 -8.43873e-10 0
-8.43873e-10 0.0462536 0
0 0 0
 
-0.0462536 -1.67326e-10 0
-1.67326e-10 0.0462535 0
0 0 0
 
-0.0462535 2.8295e-09 0
2.8295e-09 0.0462536 0
0 0 0
 
-0.0462536 2.17689e-09 0
2.17689e-09 0.0462536 0
0 0 0
 
-0.0462536 -1.25108e-09 0
-1.25108e-09 0.0462535 0
0 0 0
 
-0.0462536 2.92004e-09 0
2.92004e-09 0.0462535 0
0 0 0
 
-0.0462535 4.11897e-10 0
4.11897e-10 0.0462536 0
0 0 0
 
-0.0462535 -1.96106e-09 0
-1.96106e-09 0.0462536 0
0 0 0
 
-0.0462536 -2.1309e-09 0
-2.1309e-09 0.0462535 0
0 0 0
 
-0.0462536 -6.08096e-10 0
-6.08096e-10 0.0462535 0
0 0 0
 
-0.0462536 -6.87502e-16 0
-6.87502e-16 0.0462536 0
0 0 0
 
