# vtk DataFile Version 1.0
2D Unstructured Grid of Linear Triangles
ASCII
 
DATASET UNSTRUCTURED_GRID
POINTS 25 float
0 0  0
1 0  0
2 0  0
3 0  0
4 0  0
0.14 1  0
1.14 1  0
2.14 1  0
3.14 1  0
4.14 1  0
0.28 2  0
1.28 2  0
2.28 2  0
3.28 2  0
4.28 2  0
0.42 3  0
1.42 3  0
2.42 3  0
3.42 3  0
4.42 3  0
0.56 4  0
1.56 4  0
2.56 4  0
3.56 4  0
4.56 4  0
CELLS 32 128
3 0 1 5
3 1 2 6
3 2 3 7
3 3 4 8
3 5 6 10
3 6 7 11
3 7 8 12
3 8 9 13
3 10 11 15
3 11 12 16
3 12 13 17
3 13 14 18
3 15 16 20
3 16 17 21
3 17 18 22
3 18 19 23
3 6 5 1
3 7 6 2
3 8 7 3
3 9 8 4
3 11 10 6
3 12 11 7
3 13 12 8
3 14 13 9
3 16 15 11
3 17 16 12
3 18 17 13
3 19 18 14
3 21 20 16
3 22 21 17
3 23 22 18
3 24 23 19
 
CELL_TYPES 32
5
5
5
5
5
5
5
5
5
5
5
5
5
5
5
5
5
5
5
5
5
5
5
5
5
5
5
5
5
5
5
5
 
POINT_DATA 25
SCALARS Energy float
LOOKUP_TABLE default 
0
0
0
0
0
0
0
0
0
0
0
0
0
0
0
0
0
0
0
0
0
0
0
0
0
 
CELL_DATA 32
TENSORS Stress float 
0 0 0
0 0 0
0 0 0
 
0 0 0
0 0 0
0 0 0
 
0 0 0
0 0 0
0 0 0
 
0 0 0
0 0 0
0 0 0
 
0 0 0
0 0 0
0 0 0
 
0 0 0
0 0 0
0 0 0
 
0 0 0
0 0 0
0 0 0
 
0 0 0
0 0 0
0 0 0
 
0 0 0
0 0 0
0 0 0
 
0 0 0
0 0 0
0 0 0
 
0 0 0
0 0 0
0 0 0
 
0 0 0
0 0 0
0 0 0
 
0 0 0
0 0 0
0 0 0
 
0 0 0
0 0 0
0 0 0
 
0 0 0
0 0 0
0 0 0
 
0 0 0
0 0 0
0 0 0
 
0 0 0
0 0 0
0 0 0
 
0 0 0
0 0 0
0 0 0
 
0 0 0
0 0 0
0 0 0
 
0 0 0
0 0 0
0 0 0
 
0 0 0
0 0 0
0 0 0
 
0 0 0
0 0 0
0 0 0
 
0 0 0
0 0 0
0 0 0
 
0 0 0
0 0 0
0 0 0
 
0 0 0
0 0 0
0 0 0
 
0 0 0
0 0 0
0 0 0
 
0 0 0
0 0 0
0 0 0
 
0 0 0
0 0 0
0 0 0
 
0 0 0
0 0 0
0 0 0
 
0 0 0
0 0 0
0 0 0
 
0 0 0
0 0 0
0 0 0
 
0 0 0
0 0 0
0 0 0
 
