# vtk DataFile Version 1.0
2D Unstructured Grid of Linear Triangles
ASCII
 
DATASET UNSTRUCTURED_GRID
POINTS 25 float
0 0  0
1 0  0
2 0  0
3 0  0
4 0  0
0.5 1  0
1.499 1  0
2.499 1  0
3.499 1  0
4.5 1  0
1 2  0
1.998 2  0
2.998 2  0
3.998 2  0
5 2  0
1.5 3  0
2.497 3  0
3.497 3  0
4.497 3  0
5.5 3  0
2 4  0
3 4  0
4 4  0
5 4  0
6 4  0
CELLS 32 128
3 0 1 5
3 1 2 6
3 2 3 7
3 3 4 8
3 5 6 10
3 6 7 11
3 7 8 12
3 8 9 13
3 10 11 15
3 11 12 16
3 12 13 17
3 13 14 18
3 15 16 20
3 16 17 21
3 17 18 22
3 18 19 23
3 6 5 1
3 7 6 2
3 8 7 3
3 9 8 4
3 11 10 6
3 12 11 7
3 13 12 8
3 14 13 9
3 16 15 11
3 17 16 12
3 18 17 13
3 19 18 14
3 21 20 16
3 22 21 17
3 23 22 18
3 24 23 19
 
CELL_TYPES 32
5
5
5
5
5
5
5
5
5
5
5
5
5
5
5
5
5
5
5
5
5
5
5
5
5
5
5
5
5
5
5
5
 
POINT_DATA 25
SCALARS Energy float
LOOKUP_TABLE default 
0.0904208
0.0904204
0.0904204
0.0904204
0
0.0904753
0.0904204
0.0904204
0.0903821
0
0.0905464
0.0904204
0.0904204
0.0903602
0
0.0906341
0.0904173
0.0904173
0.0903564
0
0
0
0
0
0
 
CELL_DATA 32
TENSORS Stress float 
-0.0462536 -2.48272e-16 0
-2.48272e-16 0.0462536 0
0 0 0
 
-0.046637 0.00077131 0
0.00077131 0.0462521 0
0 0 0
 
-0.046637 0.000771308 0
0.000771308 0.046252 0
0 0 0
 
-0.0466369 0.000771309 0
0.000771309 0.0462521 0
0 0 0
 
-0.0628101 -0.000387908 0
-0.000387908 0.0309572 0
0 0 0
 
-0.0466369 0.000771314 0
0.000771314 0.0462521 0
0 0 0
 
-0.046637 0.00077131 0
0.00077131 0.0462521 0
0 0 0
 
-0.0300958 0.00115021 0
0.00115021 0.061568 0
0 0 0
 
-0.0793866 -0.000780322 0
-0.000780322 0.015682 0
0 0 0
 
-0.046637 0.000771309 0
0.000771309 0.046252 0
0 0 0
 
-0.0466369 0.000771311 0
0.000771311 0.0462521 0
0 0 0
 
-0.0135746 0.0015246 0
0.0015246 0.0769049 0
0 0 0
 
-0.0959833 -0.00117725 0
-0.00117725 0.000427871 0
0 0 0
 
-0.0450763 -0.00231404 0
-0.00231404 0.0462402 0
0 0 0
 
-0.0450762 -0.00231403 0
-0.00231403 0.0462402 0
0 0 0
 
0.00443356 -0.00113666 0
-0.00113666 0.0922689 0
0 0 0
 
-0.063198 0.000387908 0
0.000387908 0.0309572 0
0 0 0
 
-0.0466369 0.000771311 0
0.000771311 0.0462521 0
0 0 0
 
-0.046637 0.000771305 0
0.000771305 0.046252 0
0 0 0
 
-0.029717 0.0003834 0
0.0003834 0.0615709 0
0 0 0
 
-0.079779 3.38293e-09 0
3.38293e-09 0.0156834 0
0 0 0
 
-0.046637 0.00077131 0
0.00077131 0.0462521 0
0 0 0
 
-0.0466369 0.00077131 0
0.00077131 0.0462521 0
0 0 0
 
-0.0132001 0.00076229 0
0.00076229 0.0769094 0
0 0 0
 
-0.0963801 -0.00039241 0
-0.00039241 0.000430825 0
0 0 0
 
-0.046637 0.000771309 0
0.000771309 0.0462521 0
0 0 0
 
-0.0466369 0.000771315 0
0.000771315 0.0462521 0
0 0 0
 
0.00329689 0.00113666 0
0.00113666 0.0922689 0
0 0 0
 
-0.0450762 -0.00231403 0
-0.00231403 0.0462402 0
0 0 0
 
-0.0450763 -0.00231403 0
-0.00231403 0.0462402 0
0 0 0
 
-0.0450762 -0.00231403 0
-0.00231403 0.0462402 0
0 0 0
 
-0.0462536 -6.87502e-16 0
-6.87502e-16 0.0462536 0
0 0 0
 
